Global Parameters
ISTART =  0            (Read existing wavefunction, if there)
#ISPIN  =  2            (Non-Spin polarised DFT)
# ICHARG =  11         (Non-self-consistent: GGA/LDA band structures)
LREAL  = Auto          (Projection operators: automatic, 与初始数据集 AIMD 一致)
ENCUT  =  400        (Cut-off energy; 与初始数据集 AIMD 一致, max ENMAX Ge_d 310.3 的 1.29x)
PREC   =  Accurate   (Precision level: Normal or Accurate, set Accurate when perform structure lattice relaxation calculation)
LWAVE  = .FALSE.        (Write WAVECAR or not)
LCHARG = .FALSE.        (Write CHGCAR or not)
ADDGRID= .TRUE.         (Increase grid, helps GGA convergence; 与初始数据集 AIMD 一致)
# LVTOT  = .TRUE.      (Write total electrostatic potential into LOCPOT or not)
# LVHAR  = .TRUE.      (Write ionic + Hartree electrostatic potential into LOCPOT or not)
# NELECT =             (No. of electrons: charged cells, be careful)
# LPLANE = .TRUE.      (Real space distribution, supercells)
# NWRITE = 2           (Medium-level output)
# KPAR   = 2           (Divides k-grid into separate groups)
# NGXF    = 300        (FFT grid mesh density for nice charge/potential plots)
# NGYF    = 300        (FFT grid mesh density for nice charge/potential plots)
# NGZF    = 300        (FFT grid mesh density for nice charge/potential plots)
 
Electronic Relaxation
ISMEAR =  0            (Gaussian smearing, metals:1)
SIGMA  =  0.05         (Smearing value in eV, metals:0.2)
NELM   =  120           (Max electronic SCF steps)
NELMIN =  6            (Min electronic SCF steps)
EDIFF  =  1E-05       (SCF energy convergence, in eV; 与初始集一致)
ALGO   =  Fast        (RMM-DIIS; 与初始集一致, GPU 版实测可用)
# GGA  =  PS           (PBEsol exchange-correlation)
 
Ionic Relaxation
NSW    =  0          (Max ionic steps)
IBRION =  -1            (Algorithm: 0-MD, 1-Quasi-New, 2-CG)
ISIF   =  2            (Stress/relaxation: 2-Ions, 3-Shape/Ions/V, 4-Shape/Ions)
EDIFFG = -5E-03        (Ionic convergence, eV/AA)
POTIM = 0.1

# ISYM =  2            (Symmetry: 0=none, 2=GGA, 3=hybrids)
 
#DFT-D3 Correction
#IVDW   =  11
#kpoints
KSPACING=1.0000
KGAMMA=.TRUE.
ISYM = 0
